x = 20;
y = 11;
c = 73;
n = 67;

p = [37  89  100  34  82  72  42  51  70  93  78  50  57  61  51  97  16  60  62  53  68  99  65  34  81  65  12  71  80  43  77  64  19  93  93  98  95  86  59  60  77  48  59  39  87  13  91  69  48  28  91  75  83  100  13  82  87  31  79  94  90  18  13  27  17  54  77];
w = [4  3  10  9  5  8  2  9  9  6  7  8  7  10  5  4  6  8  6  1  1  5  6  2  8  1  1  7  5  9  9  5  7  8  5  4  5  8  3  4  10  9  7  3  9  3  7  8  1  3  9  8  1  7  3  9  3  4  4  9  9  3  5  10  6  3  8];
s = [7  4  5  8  10  2  11  10  9  5  5  3  4  2  5  6  8  6  6  3  11  11  10  2  1  8  6  11  1  5  2  3  11  4  9  7  11  10  9  3  3  9  3  1  10  7  6  2  10  10  7  8  1  9  7  2  4  3  2  2  5  5  1  2  8  3  11];
